Geographic Exponential Decay
40 71 258 17 50 220 14 261 3 169 121 310 115 283 8 186 298 110 303 29 178 267 59 149 163 128 127 43 232 213 45 103 189 87 250 306 58 155 81 139 86
p edge 320 325
e 0 191 1.0
e 1 169 62.0
e 1 0 1.0
e 2 122 10.0
e 2 1 2.0
e 3 178 2.0
e 3 123 12.0
e 3 151 60.0
e 3 272 20.0
e 3 108 29.0
e 3 2 46.0
e 4 306 13.0
e 5 96 1.0
e 5 3 62.0
e 6 252 11.0
e 6 5 7.0
e 7 143 1.0
e 7 6 12.0
e 8 87 22.0
e 8 289 31.0
e 8 249 63.0
e 8 26 10.0
e 8 71 6.0
e 9 95 2.0
e 9 7 9.0
e 10 187 1.0
e 10 9 6.0
e 11 245 1.0
e 11 10 11.0
e 12 58 22.0
e 13 78 3.0
e 13 11 3.0
e 14 179 83.0
e 14 173 67.0
e 14 224 80.0
e 14 37 82.0
e 14 199 23.0
e 14 13 14.0
e 15 197 6.0
e 15 14 90.0
e 16 261 95.0
e 17 297 43.0
e 17 65 63.0
e 17 107 39.0
e 17 76 51.0
e 17 18 15.0
e 17 15 49.0
e 19 32 2.0
e 19 17 31.0
e 20 231 5.0
e 20 19 1.0
e 21 254 1.0
e 21 20 1.0
e 22 264 3.0
e 22 21 1.0
e 23 257 24.0
e 23 145 1.0
e 23 22 18.0
e 24 291 6.0
e 24 23 20.0
e 25 182 2.0
e 25 24 1.0
e 26 213 26.0
e 26 97 33.0
e 27 273 4.0
e 27 25 5.0
e 28 217 1.0
e 28 27 6.0
e 29 239 72.0
e 29 260 96.0
e 29 124 78.0
e 29 99 34.0
e 29 98 87.0
e 29 28 61.0
e 30 55 12.0
e 30 29 93.0
e 31 242 2.0
e 31 30 3.0
e 33 116 1.0
e 33 31 1.0
e 34 113 2.0
e 34 33 1.0
e 35 36 1.0
e 35 34 1.0
e 38 181 12.0
e 38 35 3.0
e 39 57 4.0
e 39 171 13.0
e 40 43 43.0
e 41 255 6.0
e 41 38 1.0
e 42 43 93.0
e 43 292 13.0
e 43 44 84.0
e 43 94 64.0
e 45 115 71.0
e 45 299 78.0
e 45 258 32.0
e 45 71 51.0
e 45 240 72.0
e 46 318 9.0
e 46 41 10.0
e 47 48 1.0
e 47 46 7.0
e 49 259 5.0
e 49 47 2.0
e 50 261 50.0
e 50 200 88.0
e 50 51 69.0
e 50 296 10.0
e 50 161 14.0
e 52 156 5.0
e 52 49 5.0
e 53 211 12.0
e 53 52 1.0
e 54 56 4.0
e 54 53 5.0
e 57 81 33.0
e 58 185 55.0
e 58 71 93.0
e 58 196 13.0
e 58 125 46.0
e 59 189 6.0
e 59 306 29.0
e 59 214 98.0
e 59 292 44.0
e 59 60 79.0
e 61 71 93.0
e 62 126 2.0
e 62 54 1.0
e 63 67 10.0
e 63 62 3.0
e 64 109 9.0
e 64 63 6.0
e 66 68 1.0
e 66 64 2.0
e 69 201 1.0
e 69 66 6.0
e 70 71 46.0
e 72 164 2.0
e 72 69 12.0
e 73 105 1.0
e 73 72 1.0
e 74 75 1.0
e 74 73 5.0
e 77 79 1.0
e 77 74 5.0
e 80 256 1.0
e 80 77 2.0
e 81 188 28.0
e 81 220 53.0
e 81 247 72.0
e 81 110 34.0
e 82 238 1.0
e 82 80 2.0
e 83 220 8.0
e 84 261 9.0
e 85 86 81.0
e 86 251 28.0
e 86 157 47.0
e 86 213 79.0
e 86 305 85.0
e 87 88 60.0
e 87 298 31.0
e 87 110 17.0
e 87 236 97.0
e 88 308 23.0
e 88 89 43.0
e 90 203 9.0
e 90 82 4.0
e 91 110 37.0
e 92 93 4.0
e 92 90 8.0
e 94 100 9.0
e 101 102 1.0
e 101 92 5.0
e 103 267 26.0
e 103 180 32.0
e 103 110 28.0
e 103 104 61.0
e 103 287 47.0
e 106 110 84.0
e 111 298 76.0
e 112 114 3.0
e 112 101 5.0
e 115 275 39.0
e 115 117 8.0
e 115 118 4.0
e 115 119 10.0
e 117 140 44.0
e 117 204 31.0
e 120 121 30.0
e 121 127 20.0
e 121 186 57.0
e 121 223 39.0
e 121 253 88.0
e 127 130 11.0
e 127 129 14.0
e 127 218 15.0
e 127 152 82.0
e 128 129 1.0
e 128 131 48.0
e 128 132 85.0
e 128 133 36.0
e 128 134 43.0
e 135 274 1.0
e 135 112 4.0
e 136 288 7.0
e 136 135 9.0
e 137 230 1.0
e 137 136 10.0
e 138 248 2.0
e 138 137 1.0
e 139 304 39.0
e 139 222 34.0
e 139 141 53.0
e 139 250 97.0
e 139 142 93.0
e 144 277 2.0
e 144 138 3.0
e 146 298 14.0
e 147 250 26.0
e 148 149 22.0
e 148 144 3.0
e 149 315 4.0
e 149 150 60.0
e 149 153 12.0
e 149 154 81.0
e 155 158 16.0
e 155 159 55.0
e 155 319 81.0
e 155 160 18.0
e 155 246 67.0
e 155 148 76.0
e 162 232 68.0
e 162 155 59.0
e 163 165 70.0
e 163 241 49.0
e 163 166 94.0
e 163 167 98.0
e 163 237 45.0
e 163 162 87.0
e 168 290 5.0
e 168 163 1.0
e 169 170 3.0
e 169 202 83.0
e 169 172 68.0
e 169 243 100.0
e 174 265 2.0
e 174 168 3.0
e 175 266 1.0
e 175 174 1.0
e 176 177 1.0
e 176 175 3.0
e 178 212 92.0
e 178 293 48.0
e 178 183 77.0
e 178 258 76.0
e 184 244 5.0
e 184 176 2.0
e 186 189 35.0
e 186 190 65.0
e 186 258 44.0
e 186 216 64.0
e 189 192 14.0
e 189 193 81.0
e 189 219 83.0
e 194 195 2.0
e 194 184 1.0
e 198 202 22.0
e 198 205 21.0
e 205 206 19.0
e 207 262 1.0
e 207 194 3.0
e 208 270 3.0
e 208 207 6.0
e 209 294 17.0
e 209 306 66.0
e 209 210 10.0
e 213 258 56.0
e 213 215 49.0
e 213 220 2.0
e 220 258 30.0
e 220 295 64.0
e 221 319 15.0
e 225 226 9.0
e 225 208 3.0
e 227 228 5.0
e 227 225 10.0
e 229 232 3.0
e 232 233 15.0
e 232 234 68.0
e 232 235 25.0
e 250 261 13.0
e 250 263 45.0
e 250 267 87.0
e 261 263 22.0
e 263 267 97.0
e 267 268 18.0
e 267 269 93.0
e 269 271 2.0
e 269 276 35.0
e 278 279 12.0
e 278 227 3.0
e 280 281 1.0
e 280 278 10.0
e 282 283 2.0
e 283 284 4.0
e 283 285 23.0
e 283 286 20.0
e 283 295 7.0
e 298 300 53.0
e 298 301 36.0
e 302 303 53.0
e 303 306 36.0
e 303 307 23.0
e 303 309 46.0
e 303 310 24.0
e 306 310 59.0
e 310 311 46.0
e 310 312 5.0
e 310 313 51.0
e 312 314 4.0
e 316 317 9.0
e 316 280 2.0
